p cnf 61 1041
c at least one value
1 2 3 4 5 6 0
7 8 9 10 11 12 0
13 14 15 16 17 18 0
19 20 21 22 23 24 0
25 26 27 28 29 30 0
31 32 33 34 35 36 0
37 38 39 40 41 0
42 43 44 45 46 0
47 48 49 50 51 0
52 53 54 55 56 0
57 58 59 60 61 0
c at most one value
-1 -2 0
-1 -3 0
-1 -4 0
-1 -5 0
-1 -6 0
-2 -3 0
-2 -4 0
-2 -5 0
-2 -6 0
-3 -4 0
-3 -5 0
-3 -6 0
-4 -5 0
-4 -6 0
-5 -6 0
-7 -8 0
-7 -9 0
-7 -10 0
-7 -11 0
-7 -12 0
-8 -9 0
-8 -10 0
-8 -11 0
-8 -12 0
-9 -10 0
-9 -11 0
-9 -12 0
-10 -11 0
-10 -12 0
-11 -12 0
-13 -14 0
-13 -15 0
-13 -16 0
-13 -17 0
-13 -18 0
-14 -15 0
-14 -16 0
-14 -17 0
-14 -18 0
-15 -16 0
-15 -17 0
-15 -18 0
-16 -17 0
-16 -18 0
-17 -18 0
-19 -20 0
-19 -21 0
-19 -22 0
-19 -23 0
-19 -24 0
-20 -21 0
-20 -22 0
-20 -23 0
-20 -24 0
-21 -22 0
-21 -23 0
-21 -24 0
-22 -23 0
-22 -24 0
-23 -24 0
-25 -26 0
-25 -27 0
-25 -28 0
-25 -29 0
-25 -30 0
-26 -27 0
-26 -28 0
-26 -29 0
-26 -30 0
-27 -28 0
-27 -29 0
-27 -30 0
-28 -29 0
-28 -30 0
-29 -30 0
-31 -32 0
-31 -33 0
-31 -34 0
-31 -35 0
-31 -36 0
-32 -33 0
-32 -34 0
-32 -35 0
-32 -36 0
-33 -34 0
-33 -35 0
-33 -36 0
-34 -35 0
-34 -36 0
-35 -36 0
-37 -38 0
-37 -39 0
-37 -40 0
-37 -41 0
-38 -39 0
-38 -40 0
-38 -41 0
-39 -40 0
-39 -41 0
-40 -41 0
-42 -43 0
-42 -44 0
-42 -45 0
-42 -46 0
-43 -44 0
-43 -45 0
-43 -46 0
-44 -45 0
-44 -46 0
-45 -46 0
-47 -48 0
-47 -49 0
-47 -50 0
-47 -51 0
-48 -49 0
-48 -50 0
-48 -51 0
-49 -50 0
-49 -51 0
-50 -51 0
-52 -53 0
-52 -54 0
-52 -55 0
-52 -56 0
-53 -54 0
-53 -55 0
-53 -56 0
-54 -55 0
-54 -56 0
-55 -56 0
-57 -58 0
-57 -59 0
-57 -60 0
-57 -61 0
-58 -59 0
-58 -60 0
-58 -61 0
-59 -60 0
-59 -61 0
-60 -61 0
c graceful clauses
-1 -7 -37 0
-1 -7 -38 0
-1 -7 -39 0
-1 -7 -40 0
-1 -7 -41 0
-1 -8 -38 0
-1 -8 -39 0
-1 -8 -40 0
-1 -8 -41 0
-1 -9 -37 0
-1 -9 -39 0
-1 -9 -40 0
-1 -9 -41 0
-1 -10 -37 0
-1 -10 -38 0
-1 -10 -40 0
-1 -10 -41 0
-1 -11 -37 0
-1 -11 -38 0
-1 -11 -39 0
-1 -11 -41 0
-1 -12 -37 0
-1 -12 -38 0
-1 -12 -39 0
-1 -12 -40 0
-2 -7 -38 0
-2 -7 -39 0
-2 -7 -40 0
-2 -7 -41 0
-2 -8 -37 0
-2 -8 -38 0
-2 -8 -39 0
-2 -8 -40 0
-2 -8 -41 0
-2 -9 -38 0
-2 -9 -39 0
-2 -9 -40 0
-2 -9 -41 0
-2 -10 -37 0
-2 -10 -39 0
-2 -10 -40 0
-2 -10 -41 0
-2 -11 -37 0
-2 -11 -38 0
-2 -11 -40 0
-2 -11 -41 0
-2 -12 -37 0
-2 -12 -38 0
-2 -12 -39 0
-2 -12 -41 0
-3 -7 -37 0
-3 -7 -39 0
-3 -7 -40 0
-3 -7 -41 0
-3 -8 -38 0
-3 -8 -39 0
-3 -8 -40 0
-3 -8 -41 0
-3 -9 -37 0
-3 -9 -38 0
-3 -9 -39 0
-3 -9 -40 0
-3 -9 -41 0
-3 -10 -38 0
-3 -10 -39 0
-3 -10 -40 0
-3 -10 -41 0
-3 -11 -37 0
-3 -11 -39 0
-3 -11 -40 0
-3 -11 -41 0
-3 -12 -37 0
-3 -12 -38 0
-3 -12 -40 0
-3 -12 -41 0
-4 -7 -37 0
-4 -7 -38 0
-4 -7 -40 0
-4 -7 -41 0
-4 -8 -37 0
-4 -8 -39 0
-4 -8 -40 0
-4 -8 -41 0
-4 -9 -38 0
-4 -9 -39 0
-4 -9 -40 0
-4 -9 -41 0
-4 -10 -37 0
-4 -10 -38 0
-4 -10 -39 0
-4 -10 -40 0
-4 -10 -41 0
-4 -11 -38 0
-4 -11 -39 0
-4 -11 -40 0
-4 -11 -41 0
-4 -12 -37 0
-4 -12 -39 0
-4 -12 -40 0
-4 -12 -41 0
-5 -7 -37 0
-5 -7 -38 0
-5 -7 -39 0
-5 -7 -41 0
-5 -8 -37 0
-5 -8 -38 0
-5 -8 -40 0
-5 -8 -41 0
-5 -9 -37 0
-5 -9 -39 0
-5 -9 -40 0
-5 -9 -41 0
-5 -10 -38 0
-5 -10 -39 0
-5 -10 -40 0
-5 -10 -41 0
-5 -11 -37 0
-5 -11 -38 0
-5 -11 -39 0
-5 -11 -40 0
-5 -11 -41 0
-5 -12 -38 0
-5 -12 -39 0
-5 -12 -40 0
-5 -12 -41 0
-6 -7 -37 0
-6 -7 -38 0
-6 -7 -39 0
-6 -7 -40 0
-6 -8 -37 0
-6 -8 -38 0
-6 -8 -39 0
-6 -8 -41 0
-6 -9 -37 0
-6 -9 -38 0
-6 -9 -40 0
-6 -9 -41 0
-6 -10 -37 0
-6 -10 -39 0
-6 -10 -40 0
-6 -10 -41 0
-6 -11 -38 0
-6 -11 -39 0
-6 -11 -40 0
-6 -11 -41 0
-6 -12 -37 0
-6 -12 -38 0
-6 -12 -39 0
-6 -12 -40 0
-6 -12 -41 0
-1 -13 -42 0
-1 -13 -43 0
-1 -13 -44 0
-1 -13 -45 0
-1 -13 -46 0
-1 -14 -43 0
-1 -14 -44 0
-1 -14 -45 0
-1 -14 -46 0
-1 -15 -42 0
-1 -15 -44 0
-1 -15 -45 0
-1 -15 -46 0
-1 -16 -42 0
-1 -16 -43 0
-1 -16 -45 0
-1 -16 -46 0
-1 -17 -42 0
-1 -17 -43 0
-1 -17 -44 0
-1 -17 -46 0
-1 -18 -42 0
-1 -18 -43 0
-1 -18 -44 0
-1 -18 -45 0
-2 -13 -43 0
-2 -13 -44 0
-2 -13 -45 0
-2 -13 -46 0
-2 -14 -42 0
-2 -14 -43 0
-2 -14 -44 0
-2 -14 -45 0
-2 -14 -46 0
-2 -15 -43 0
-2 -15 -44 0
-2 -15 -45 0
-2 -15 -46 0
-2 -16 -42 0
-2 -16 -44 0
-2 -16 -45 0
-2 -16 -46 0
-2 -17 -42 0
-2 -17 -43 0
-2 -17 -45 0
-2 -17 -46 0
-2 -18 -42 0
-2 -18 -43 0
-2 -18 -44 0
-2 -18 -46 0
-3 -13 -42 0
-3 -13 -44 0
-3 -13 -45 0
-3 -13 -46 0
-3 -14 -43 0
-3 -14 -44 0
-3 -14 -45 0
-3 -14 -46 0
-3 -15 -42 0
-3 -15 -43 0
-3 -15 -44 0
-3 -15 -45 0
-3 -15 -46 0
-3 -16 -43 0
-3 -16 -44 0
-3 -16 -45 0
-3 -16 -46 0
-3 -17 -42 0
-3 -17 -44 0
-3 -17 -45 0
-3 -17 -46 0
-3 -18 -42 0
-3 -18 -43 0
-3 -18 -45 0
-3 -18 -46 0
-4 -13 -42 0
-4 -13 -43 0
-4 -13 -45 0
-4 -13 -46 0
-4 -14 -42 0
-4 -14 -44 0
-4 -14 -45 0
-4 -14 -46 0
-4 -15 -43 0
-4 -15 -44 0
-4 -15 -45 0
-4 -15 -46 0
-4 -16 -42 0
-4 -16 -43 0
-4 -16 -44 0
-4 -16 -45 0
-4 -16 -46 0
-4 -17 -43 0
-4 -17 -44 0
-4 -17 -45 0
-4 -17 -46 0
-4 -18 -42 0
-4 -18 -44 0
-4 -18 -45 0
-4 -18 -46 0
-5 -13 -42 0
-5 -13 -43 0
-5 -13 -44 0
-5 -13 -46 0
-5 -14 -42 0
-5 -14 -43 0
-5 -14 -45 0
-5 -14 -46 0
-5 -15 -42 0
-5 -15 -44 0
-5 -15 -45 0
-5 -15 -46 0
-5 -16 -43 0
-5 -16 -44 0
-5 -16 -45 0
-5 -16 -46 0
-5 -17 -42 0
-5 -17 -43 0
-5 -17 -44 0
-5 -17 -45 0
-5 -17 -46 0
-5 -18 -43 0
-5 -18 -44 0
-5 -18 -45 0
-5 -18 -46 0
-6 -13 -42 0
-6 -13 -43 0
-6 -13 -44 0
-6 -13 -45 0
-6 -14 -42 0
-6 -14 -43 0
-6 -14 -44 0
-6 -14 -46 0
-6 -15 -42 0
-6 -15 -43 0
-6 -15 -45 0
-6 -15 -46 0
-6 -16 -42 0
-6 -16 -44 0
-6 -16 -45 0
-6 -16 -46 0
-6 -17 -43 0
-6 -17 -44 0
-6 -17 -45 0
-6 -17 -46 0
-6 -18 -42 0
-6 -18 -43 0
-6 -18 -44 0
-6 -18 -45 0
-6 -18 -46 0
-1 -19 -47 0
-1 -19 -48 0
-1 -19 -49 0
-1 -19 -50 0
-1 -19 -51 0
-1 -20 -48 0
-1 -20 -49 0
-1 -20 -50 0
-1 -20 -51 0
-1 -21 -47 0
-1 -21 -49 0
-1 -21 -50 0
-1 -21 -51 0
-1 -22 -47 0
-1 -22 -48 0
-1 -22 -50 0
-1 -22 -51 0
-1 -23 -47 0
-1 -23 -48 0
-1 -23 -49 0
-1 -23 -51 0
-1 -24 -47 0
-1 -24 -48 0
-1 -24 -49 0
-1 -24 -50 0
-2 -19 -48 0
-2 -19 -49 0
-2 -19 -50 0
-2 -19 -51 0
-2 -20 -47 0
-2 -20 -48 0
-2 -20 -49 0
-2 -20 -50 0
-2 -20 -51 0
-2 -21 -48 0
-2 -21 -49 0
-2 -21 -50 0
-2 -21 -51 0
-2 -22 -47 0
-2 -22 -49 0
-2 -22 -50 0
-2 -22 -51 0
-2 -23 -47 0
-2 -23 -48 0
-2 -23 -50 0
-2 -23 -51 0
-2 -24 -47 0
-2 -24 -48 0
-2 -24 -49 0
-2 -24 -51 0
-3 -19 -47 0
-3 -19 -49 0
-3 -19 -50 0
-3 -19 -51 0
-3 -20 -48 0
-3 -20 -49 0
-3 -20 -50 0
-3 -20 -51 0
-3 -21 -47 0
-3 -21 -48 0
-3 -21 -49 0
-3 -21 -50 0
-3 -21 -51 0
-3 -22 -48 0
-3 -22 -49 0
-3 -22 -50 0
-3 -22 -51 0
-3 -23 -47 0
-3 -23 -49 0
-3 -23 -50 0
-3 -23 -51 0
-3 -24 -47 0
-3 -24 -48 0
-3 -24 -50 0
-3 -24 -51 0
-4 -19 -47 0
-4 -19 -48 0
-4 -19 -50 0
-4 -19 -51 0
-4 -20 -47 0
-4 -20 -49 0
-4 -20 -50 0
-4 -20 -51 0
-4 -21 -48 0
-4 -21 -49 0
-4 -21 -50 0
-4 -21 -51 0
-4 -22 -47 0
-4 -22 -48 0
-4 -22 -49 0
-4 -22 -50 0
-4 -22 -51 0
-4 -23 -48 0
-4 -23 -49 0
-4 -23 -50 0
-4 -23 -51 0
-4 -24 -47 0
-4 -24 -49 0
-4 -24 -50 0
-4 -24 -51 0
-5 -19 -47 0
-5 -19 -48 0
-5 -19 -49 0
-5 -19 -51 0
-5 -20 -47 0
-5 -20 -48 0
-5 -20 -50 0
-5 -20 -51 0
-5 -21 -47 0
-5 -21 -49 0
-5 -21 -50 0
-5 -21 -51 0
-5 -22 -48 0
-5 -22 -49 0
-5 -22 -50 0
-5 -22 -51 0
-5 -23 -47 0
-5 -23 -48 0
-5 -23 -49 0
-5 -23 -50 0
-5 -23 -51 0
-5 -24 -48 0
-5 -24 -49 0
-5 -24 -50 0
-5 -24 -51 0
-6 -19 -47 0
-6 -19 -48 0
-6 -19 -49 0
-6 -19 -50 0
-6 -20 -47 0
-6 -20 -48 0
-6 -20 -49 0
-6 -20 -51 0
-6 -21 -47 0
-6 -21 -48 0
-6 -21 -50 0
-6 -21 -51 0
-6 -22 -47 0
-6 -22 -49 0
-6 -22 -50 0
-6 -22 -51 0
-6 -23 -48 0
-6 -23 -49 0
-6 -23 -50 0
-6 -23 -51 0
-6 -24 -47 0
-6 -24 -48 0
-6 -24 -49 0
-6 -24 -50 0
-6 -24 -51 0
-1 -25 -52 0
-1 -25 -53 0
-1 -25 -54 0
-1 -25 -55 0
-1 -25 -56 0
-1 -26 -53 0
-1 -26 -54 0
-1 -26 -55 0
-1 -26 -56 0
-1 -27 -52 0
-1 -27 -54 0
-1 -27 -55 0
-1 -27 -56 0
-1 -28 -52 0
-1 -28 -53 0
-1 -28 -55 0
-1 -28 -56 0
-1 -29 -52 0
-1 -29 -53 0
-1 -29 -54 0
-1 -29 -56 0
-1 -30 -52 0
-1 -30 -53 0
-1 -30 -54 0
-1 -30 -55 0
-2 -25 -53 0
-2 -25 -54 0
-2 -25 -55 0
-2 -25 -56 0
-2 -26 -52 0
-2 -26 -53 0
-2 -26 -54 0
-2 -26 -55 0
-2 -26 -56 0
-2 -27 -53 0
-2 -27 -54 0
-2 -27 -55 0
-2 -27 -56 0
-2 -28 -52 0
-2 -28 -54 0
-2 -28 -55 0
-2 -28 -56 0
-2 -29 -52 0
-2 -29 -53 0
-2 -29 -55 0
-2 -29 -56 0
-2 -30 -52 0
-2 -30 -53 0
-2 -30 -54 0
-2 -30 -56 0
-3 -25 -52 0
-3 -25 -54 0
-3 -25 -55 0
-3 -25 -56 0
-3 -26 -53 0
-3 -26 -54 0
-3 -26 -55 0
-3 -26 -56 0
-3 -27 -52 0
-3 -27 -53 0
-3 -27 -54 0
-3 -27 -55 0
-3 -27 -56 0
-3 -28 -53 0
-3 -28 -54 0
-3 -28 -55 0
-3 -28 -56 0
-3 -29 -52 0
-3 -29 -54 0
-3 -29 -55 0
-3 -29 -56 0
-3 -30 -52 0
-3 -30 -53 0
-3 -30 -55 0
-3 -30 -56 0
-4 -25 -52 0
-4 -25 -53 0
-4 -25 -55 0
-4 -25 -56 0
-4 -26 -52 0
-4 -26 -54 0
-4 -26 -55 0
-4 -26 -56 0
-4 -27 -53 0
-4 -27 -54 0
-4 -27 -55 0
-4 -27 -56 0
-4 -28 -52 0
-4 -28 -53 0
-4 -28 -54 0
-4 -28 -55 0
-4 -28 -56 0
-4 -29 -53 0
-4 -29 -54 0
-4 -29 -55 0
-4 -29 -56 0
-4 -30 -52 0
-4 -30 -54 0
-4 -30 -55 0
-4 -30 -56 0
-5 -25 -52 0
-5 -25 -53 0
-5 -25 -54 0
-5 -25 -56 0
-5 -26 -52 0
-5 -26 -53 0
-5 -26 -55 0
-5 -26 -56 0
-5 -27 -52 0
-5 -27 -54 0
-5 -27 -55 0
-5 -27 -56 0
-5 -28 -53 0
-5 -28 -54 0
-5 -28 -55 0
-5 -28 -56 0
-5 -29 -52 0
-5 -29 -53 0
-5 -29 -54 0
-5 -29 -55 0
-5 -29 -56 0
-5 -30 -53 0
-5 -30 -54 0
-5 -30 -55 0
-5 -30 -56 0
-6 -25 -52 0
-6 -25 -53 0
-6 -25 -54 0
-6 -25 -55 0
-6 -26 -52 0
-6 -26 -53 0
-6 -26 -54 0
-6 -26 -56 0
-6 -27 -52 0
-6 -27 -53 0
-6 -27 -55 0
-6 -27 -56 0
-6 -28 -52 0
-6 -28 -54 0
-6 -28 -55 0
-6 -28 -56 0
-6 -29 -53 0
-6 -29 -54 0
-6 -29 -55 0
-6 -29 -56 0
-6 -30 -52 0
-6 -30 -53 0
-6 -30 -54 0
-6 -30 -55 0
-6 -30 -56 0
-1 -31 -57 0
-1 -31 -58 0
-1 -31 -59 0
-1 -31 -60 0
-1 -31 -61 0
-1 -32 -58 0
-1 -32 -59 0
-1 -32 -60 0
-1 -32 -61 0
-1 -33 -57 0
-1 -33 -59 0
-1 -33 -60 0
-1 -33 -61 0
-1 -34 -57 0
-1 -34 -58 0
-1 -34 -60 0
-1 -34 -61 0
-1 -35 -57 0
-1 -35 -58 0
-1 -35 -59 0
-1 -35 -61 0
-1 -36 -57 0
-1 -36 -58 0
-1 -36 -59 0
-1 -36 -60 0
-2 -31 -58 0
-2 -31 -59 0
-2 -31 -60 0
-2 -31 -61 0
-2 -32 -57 0
-2 -32 -58 0
-2 -32 -59 0
-2 -32 -60 0
-2 -32 -61 0
-2 -33 -58 0
-2 -33 -59 0
-2 -33 -60 0
-2 -33 -61 0
-2 -34 -57 0
-2 -34 -59 0
-2 -34 -60 0
-2 -34 -61 0
-2 -35 -57 0
-2 -35 -58 0
-2 -35 -60 0
-2 -35 -61 0
-2 -36 -57 0
-2 -36 -58 0
-2 -36 -59 0
-2 -36 -61 0
-3 -31 -57 0
-3 -31 -59 0
-3 -31 -60 0
-3 -31 -61 0
-3 -32 -58 0
-3 -32 -59 0
-3 -32 -60 0
-3 -32 -61 0
-3 -33 -57 0
-3 -33 -58 0
-3 -33 -59 0
-3 -33 -60 0
-3 -33 -61 0
-3 -34 -58 0
-3 -34 -59 0
-3 -34 -60 0
-3 -34 -61 0
-3 -35 -57 0
-3 -35 -59 0
-3 -35 -60 0
-3 -35 -61 0
-3 -36 -57 0
-3 -36 -58 0
-3 -36 -60 0
-3 -36 -61 0
-4 -31 -57 0
-4 -31 -58 0
-4 -31 -60 0
-4 -31 -61 0
-4 -32 -57 0
-4 -32 -59 0
-4 -32 -60 0
-4 -32 -61 0
-4 -33 -58 0
-4 -33 -59 0
-4 -33 -60 0
-4 -33 -61 0
-4 -34 -57 0
-4 -34 -58 0
-4 -34 -59 0
-4 -34 -60 0
-4 -34 -61 0
-4 -35 -58 0
-4 -35 -59 0
-4 -35 -60 0
-4 -35 -61 0
-4 -36 -57 0
-4 -36 -59 0
-4 -36 -60 0
-4 -36 -61 0
-5 -31 -57 0
-5 -31 -58 0
-5 -31 -59 0
-5 -31 -61 0
-5 -32 -57 0
-5 -32 -58 0
-5 -32 -60 0
-5 -32 -61 0
-5 -33 -57 0
-5 -33 -59 0
-5 -33 -60 0
-5 -33 -61 0
-5 -34 -58 0
-5 -34 -59 0
-5 -34 -60 0
-5 -34 -61 0
-5 -35 -57 0
-5 -35 -58 0
-5 -35 -59 0
-5 -35 -60 0
-5 -35 -61 0
-5 -36 -58 0
-5 -36 -59 0
-5 -36 -60 0
-5 -36 -61 0
-6 -31 -57 0
-6 -31 -58 0
-6 -31 -59 0
-6 -31 -60 0
-6 -32 -57 0
-6 -32 -58 0
-6 -32 -59 0
-6 -32 -61 0
-6 -33 -57 0
-6 -33 -58 0
-6 -33 -60 0
-6 -33 -61 0
-6 -34 -57 0
-6 -34 -59 0
-6 -34 -60 0
-6 -34 -61 0
-6 -35 -58 0
-6 -35 -59 0
-6 -35 -60 0
-6 -35 -61 0
-6 -36 -57 0
-6 -36 -58 0
-6 -36 -59 0
-6 -36 -60 0
-6 -36 -61 0
c create alldiff
-1 -7 0
-2 -8 0
-3 -9 0
-4 -10 0
-5 -11 0
-6 -12 0
-1 -13 0
-2 -14 0
-3 -15 0
-4 -16 0
-5 -17 0
-6 -18 0
-1 -19 0
-2 -20 0
-3 -21 0
-4 -22 0
-5 -23 0
-6 -24 0
-1 -25 0
-2 -26 0
-3 -27 0
-4 -28 0
-5 -29 0
-6 -30 0
-1 -31 0
-2 -32 0
-3 -33 0
-4 -34 0
-5 -35 0
-6 -36 0
-7 -13 0
-8 -14 0
-9 -15 0
-10 -16 0
-11 -17 0
-12 -18 0
-7 -19 0
-8 -20 0
-9 -21 0
-10 -22 0
-11 -23 0
-12 -24 0
-7 -25 0
-8 -26 0
-9 -27 0
-10 -28 0
-11 -29 0
-12 -30 0
-7 -31 0
-8 -32 0
-9 -33 0
-10 -34 0
-11 -35 0
-12 -36 0
-13 -19 0
-14 -20 0
-15 -21 0
-16 -22 0
-17 -23 0
-18 -24 0
-13 -25 0
-14 -26 0
-15 -27 0
-16 -28 0
-17 -29 0
-18 -30 0
-13 -31 0
-14 -32 0
-15 -33 0
-16 -34 0
-17 -35 0
-18 -36 0
-19 -25 0
-20 -26 0
-21 -27 0
-22 -28 0
-23 -29 0
-24 -30 0
-19 -31 0
-20 -32 0
-21 -33 0
-22 -34 0
-23 -35 0
-24 -36 0
-25 -31 0
-26 -32 0
-27 -33 0
-28 -34 0
-29 -35 0
-30 -36 0
c create alldiff
-37 -42 0
-38 -43 0
-39 -44 0
-40 -45 0
-41 -46 0
-37 -47 0
-38 -48 0
-39 -49 0
-40 -50 0
-41 -51 0
-37 -52 0
-38 -53 0
-39 -54 0
-40 -55 0
-41 -56 0
-37 -57 0
-38 -58 0
-39 -59 0
-40 -60 0
-41 -61 0
-42 -47 0
-43 -48 0
-44 -49 0
-45 -50 0
-46 -51 0
-42 -52 0
-43 -53 0
-44 -54 0
-45 -55 0
-46 -56 0
-42 -57 0
-43 -58 0
-44 -59 0
-45 -60 0
-46 -61 0
-47 -52 0
-48 -53 0
-49 -54 0
-50 -55 0
-51 -56 0
-47 -57 0
-48 -58 0
-49 -59 0
-50 -60 0
-51 -61 0
-52 -57 0
-53 -58 0
-54 -59 0
-55 -60 0
-56 -61 0
